Normalized Data/p02_110_tsplib0_normalized.txt
NAME: p02_110_tsplib0_NORMALIZED
BEST_KNOWN: 0
COMMENT: 0
DIMENSION: 76
CAPACITY: 100
EDGE_WEIGHT_FORMAT: FUNCTION
EDGE_WEIGHT_TYPE: EXACT_2D
NODE_COORD_SECTION
1 0 0
2 -18 -18
3 -4 -14
4 -19 5
5 5 -5
6 15 -20
7 -7 -6
8 10 10
9 15 5
10 -14 19
11 0 26
12 15 25
13 -5 11
14 22 -5
15 22 17
16 22 -16
17 -19 -4
18 -7 4
19 -31 16
20 22 8
21 26 -26
22 4 -27
23 -14 -27
24 -29 -12
25 -33 3
26 -23 24
27 1 6
28 15 -6
29 -5 -24
30 12 -14
31 3 -14
32 -9 36
33 -18 13
34 -14 -11
35 10 0
36 15 10
37 14 -30
38 20 -25
39 7 26
40 -10 20
41 -10 10
42 -28 -23
43 -25 -26
44 -24 -21
45 -19 8
46 10 -10
47 11 2
48 10 -25
49 8 -19
50 -28 -2
51 -25 16
52 -11 -1
53 14 -2
54 15 17
55 27 1
56 -30 30
57 -34 -15
58 25 -13
59 0 20
60 30 24
61 24 -36
62 -4 -34
63 -10 -20
64 -20 -10
65 -25 -35
66 10 30
67 17 32
68 5 2
69 -2 -7
70 10 -36
71 26 -32
72 19 -35
73 -5 20
74 -13 -16
75 0 -20
76 0 -3
DEMAND_SECTION
1 0
2 8
3 4
4 2
5 5
6 8
7 8
8 5
9 1
10 2
11 0
12 7
13 4
14 5
15 5
16 7
17 2
18 1
19 5
20 8
21 5
22 1
23 6
24 6
25 5
26 7
27 7
28 0
29 7
30 1
31 1
32 8
33 7
34 7
35 2
36 8
37 5
38 7
39 5
40 5
41 7
42 2
43 0
44 6
45 6
46 8
47 2
48 5
49 4
50 7
51 6
52 6
53 6
54 0
55 8
56 7
57 7
58 3
59 7
60 4
61 3
62 8
63 2
64 3
65 2
66 3
67 5
68 8
69 1
70 9
71 8
72 9
73 8
74 7
75 9
76 0
DEPOT_SECTION
1
-1
EOF