Normalized Data/p02_110_tsplib0_normalized.sol
75 -4 45 29 48 5 37 20 70 60 71 69 36 47 21 74 30 75 -6 33 73 1 63 16 49 24 23 56 41 43 42 64 22 61 28 62 2 68 -17 51 3 44 32 50 18 55 25 31 10 58 72 39 9 40 12 26 -34 52 27 15 57 13 54 19 14 59 66 65 38 11 53 7 35 8 46 67 0 





OBJ=
601.656
BEST_KNOWN=
0.000